
Log started (V11.0.0) Wed May 14 22:46:55 2008

Tried aggregator 1 time.
Reduced MIP has 140 rows, 4001 columns, and 8040 nonzeros.
Presolve time =    0.03 sec.
Clique table members: 100.
MIP emphasis: balance optimality and feasibility.
MIP search method: dynamic search.
Parallel mode: none, using 1 thread.
Root relaxation solution time =    0.14 sec.

        Nodes                                         Cuts/
   Node  Left     Objective  IInf  Best Integer     Best Node    ItCnt     Gap

*     0+    0                        10970.0000      250.3370      444   97.72%
*     0+    0                          302.0000      250.3370      444   17.11%
      0     0      251.5763    72      302.0000      Fract: 6      475   16.70%
*     0+    0                          301.0000      251.5763      475   16.42%
      0     0      275.2380    76      301.0000   MIRcuts: 39     1196    8.56%
      0     0      275.2383    91      301.0000   MIRcuts: 28     1347    8.56%
      0     0      275.2384   110      301.0000      Cuts: 29     1460    8.56%
*     0+    0                          300.0000      275.2384     1460    8.25%
      0     2      275.2384   110      300.0000      275.2384     1460    8.25%
    100    76      276.0000    65      300.0000      275.3017     8007    8.23%
    200   130      276.0000    64      300.0000      275.3017    26285    8.23%
    300   194      276.0000    60      300.0000      275.3017    43266    8.23%
    400   251      276.0000    65      300.0000      275.3017    61461    8.23%
    500   317      276.0000    65      300.0000      275.3017    77180    8.23%

Cover cuts applied:  33
Flow cuts applied:  2
Mixed integer rounding cuts applied:  34
Zero-half cuts applied:  4
Gomory fractional cuts applied:  3

Solution pool: 4 solutions saved.

MIP - Integer optimal solution:  Objective = 3.0000000000e+002
Solution time =   31.84 sec.  Iterations = 80965  Nodes = 511 (322)


Incumbent solution
Variable Name           Solution Value
Cmax                        300.000000
X_1_37                        1.000000
X_2_18                        1.000000
X_3_17                        1.000000
X_4_38                        1.000000
X_5_5                         1.000000
X_6_10                        1.000000
X_7_15                        1.000000
X_8_26                        1.000000
X_9_21                        1.000000
X_10_39                       1.000000
X_11_3                        1.000000
X_12_16                       1.000000
X_13_40                       1.000000
X_14_24                       1.000000
X_15_20                       1.000000
X_16_23                       1.000000
X_17_13                       1.000000
X_18_9                        1.000000
X_19_21                       1.000000
X_20_9                        1.000000
X_21_36                       1.000000
X_22_4                        1.000000
X_23_39                       1.000000
X_24_14                       1.000000
X_25_31                       1.000000
X_26_40                       1.000000
X_27_2                        1.000000
X_28_14                       1.000000
X_29_10                       1.000000
X_30_4                        1.000000
X_31_8                        1.000000
X_32_37                       1.000000
X_33_6                        1.000000
X_34_18                       1.000000
X_35_3                        1.000000
X_36_11                       1.000000
X_37_17                       1.000000
X_38_24                       1.000000
X_39_28                       1.000000
X_40_31                       1.000000
X_41_34                       1.000000
X_42_38                       1.000000
X_43_18                       1.000000
X_44_36                       1.000000
X_45_11                       1.000000
X_46_26                       1.000000
X_47_1                        1.000000
X_48_28                       1.000000
X_49_7                        1.000000
X_50_33                       1.000000
X_51_32                       1.000000
X_52_8                        1.000000
X_53_25                       1.000000
X_54_23                       1.000000
X_55_20                       1.000000
X_56_15                       1.000000
X_57_29                       1.000000
X_58_30                       1.000000
X_59_27                       1.000000
X_60_30                       1.000000
X_61_39                       1.000000
X_62_9                        1.000000
X_63_6                        1.000000
X_64_13                       1.000000
X_65_23                       1.000000
X_66_21                       1.000000
X_67_19                       1.000000
X_68_12                       1.000000
X_69_1                        1.000000
X_70_30                       1.000000
X_71_27                       1.000000
X_72_22                       1.000000
X_73_12                       1.000000
X_74_16                       1.000000
X_75_2                        1.000000
X_76_15                       1.000000
X_77_35                       1.000000
X_78_37                       1.000000
X_79_34                       1.000000
X_80_32                       1.000000
X_81_29                       1.000000
X_82_2                        1.000000
X_83_13                       1.000000
X_84_10                       1.000000
X_85_5                        1.000000
X_86_35                       1.000000
X_87_27                       1.000000
X_88_19                       1.000000
X_89_35                       1.000000
X_90_7                        1.000000
X_91_12                       1.000000
X_92_4                        1.000000
X_93_25                       1.000000
X_94_19                       1.000000
X_95_40                       1.000000
X_96_33                       1.000000
X_97_22                       1.000000
X_98_36                       1.000000
X_99_32                       1.000000
X_100_16                      1.000000
All other variables in the range 1-4001 are 0.
